sat
(:max-memory         18.14
 :memory             18.04
 :nlsat-conflicts    1
 :nlsat-propagations 14
 :nlsat-stages       5
 :num-allocs         42609
 :rlimit-count       11310
 :time               0.01
 :total-time         0.01)
